(set-logic BV) (define-fun origCir ((n96 Bool) (n104 Bool) (n115 Bool) (n106 Bool) (n131 Bool)) Bool (and (and (and n115 n106) (and n104 n96)) n131)) (synth-fun skel ((n96 Bool) (n104 Bool) (n115 Bool) (n106 Bool) (n131 Bool)) Bool) (declare-var n96 Bool) (declare-var n104 Bool) (declare-var n115 Bool) (declare-var n106 Bool) (declare-var n131 Bool) (constraint (= (origCir n96 n104 n115 n106 n131) (skel n96 n104 n115 n106 n131))) (check-synth)
